Minimize
	value: tt

Subject to
tt + 1000 s_1_1 > 0.0
tt - t_1_1 - 1002.201829 s_1_1  + 2.201829 s_1_7  > -998.383522
tt + 1000 s_2_1 > 0.0
tt - t_2_1 - 1001.961500 s_2_1  + 1.961500 s_2_7  > -991.272104
tt + 1000 s_1_2 > 0.0
tt - t_1_2 - 1002.201829 s_1_2  + 2.201829 s_1_8  > -998.170378
tt + 1000 s_2_2 > 0.0
tt - t_2_2 - 1001.961500 s_2_2  + 1.961500 s_2_8  > -990.751904
tt + 1000 s_1_3 > 0.0
tt - t_1_3 - 1002.201829 s_1_3  + 2.201829 s_1_8  > -998.012856
tt + 1000 s_2_3 > 0.0
tt - t_2_3 - 1001.961500 s_2_3  + 1.961500 s_2_8  > -986.012277
tt + 1000 s_1_4 > 0.0
tt - t_1_4 - 1003.434752 s_1_4  + 2.201829 s_1_8  + 1.232924 s_1_3  > -999.088567
tt + 1000 s_2_4 > 0.0
tt - t_2_4 - 1002.967986 s_2_4  + 1.961500 s_2_8  + 1.006486 s_2_3  > -992.336025
tt + 1000 s_1_5 > 0.0
tt - t_1_5 - 1004.403658 s_1_5  + 2.201829 s_1_7  + 2.201829 s_1_8  > -998.474200
tt + 1000 s_2_5 > 0.0
tt - t_2_5 - 1003.923000 s_2_5  + 1.961500 s_2_7  + 1.961500 s_2_8  > -990.380647
tt + 1000 s_1_6 > 0.0
tt - t_1_6 - 1006.164618 s_1_6  + 1.232924 s_1_5  + 1.232924 s_1_2  + 1.232924 s_1_4  + 1.232924 s_1_3  + 1.232924 s_1_1  > -999.720900
tt + 1000 s_2_6 > 0.0
tt - t_2_6 - 1005.032431 s_2_6  + 1.006486 s_2_5  + 1.006486 s_2_2  + 1.006486 s_2_4  + 1.006486 s_2_3  + 1.006486 s_2_1  > -995.741300
tt + 1000 s_1_7 > 0.0
tt - t_1_7 - 1000.000000 s_1_7  > -996.803189
tt + 1000 s_2_7 > 0.0
tt - t_2_7 - 1000.000000 s_2_7  > -993.318300
tt + 1000 s_1_8 > 0.0
tt - t_1_8 - 1000.000000 s_1_8  > -996.657000
tt + 1000 s_2_8 > 0.0
tt - t_2_8 - 1000.000000 s_2_8  > -991.996378
s_1_1 + s_2_1 = 1
s_1_2 + s_2_2 = 1
s_1_3 + s_2_3 = 1
s_1_4 + s_2_4 = 1
s_1_5 + s_2_5 = 1
s_1_6 + s_2_6 = 1
s_1_7 + s_2_7 = 1
s_1_8 + s_2_8 = 1
s_1_1 + s_1_2 + 1000 r_1_1_2 >= 2
- s_1_1 - s_1_2 - 1000 r_1_1_2 >= -1001
t_1_1 - t_1_2 - 1000.000000 u_1_1_2 - 2.201829 s_1_2  + 2.201829 s_1_8  + 2000.000000 r_1_1_2 > -998.170378
s_2_1 + s_2_2 + 1000 r_2_1_2 >= 2
- s_2_1 - s_2_2 - 1000 r_2_1_2 >= -1001
t_2_1 - t_2_2 - 1000.000000 u_2_1_2 - 1.961500 s_2_2  + 1.961500 s_2_8  + 2000.000000 r_2_1_2 > -990.751904
s_1_1 + s_1_3 + 1000 r_1_1_3 >= 2
- s_1_1 - s_1_3 - 1000 r_1_1_3 >= -1001
t_1_1 - t_1_3 - 1000.000000 u_1_1_3 - 2.201829 s_1_3  + 2.201829 s_1_8  + 2000.000000 r_1_1_3 > -998.012856
s_2_1 + s_2_3 + 1000 r_2_1_3 >= 2
- s_2_1 - s_2_3 - 1000 r_2_1_3 >= -1001
t_2_1 - t_2_3 - 1000.000000 u_2_1_3 - 1.961500 s_2_3  + 1.961500 s_2_8  + 2000.000000 r_2_1_3 > -986.012277
s_1_1 + s_1_4 + 1000 r_1_1_4 >= 2
- s_1_1 - s_1_4 - 1000 r_1_1_4 >= -1001
t_1_1 - t_1_4 - 1000.000000 u_1_1_4 - 3.434752 s_1_4  + 2.201829 s_1_8  + 1.232924 s_1_3  + 2000.000000 r_1_1_4 > -999.088567
s_2_1 + s_2_4 + 1000 r_2_1_4 >= 2
- s_2_1 - s_2_4 - 1000 r_2_1_4 >= -1001
t_2_1 - t_2_4 - 1000.000000 u_2_1_4 - 2.967986 s_2_4  + 1.961500 s_2_8  + 1.006486 s_2_3  + 2000.000000 r_2_1_4 > -992.336025
s_1_1 + s_1_5 + 1000 r_1_1_5 >= 2
- s_1_1 - s_1_5 - 1000 r_1_1_5 >= -1001
t_1_1 - t_1_5 - 1000.000000 u_1_1_5 - 4.403658 s_1_5  + 2.201829 s_1_7  + 2.201829 s_1_8  + 2000.000000 r_1_1_5 > -998.474200
s_2_1 + s_2_5 + 1000 r_2_1_5 >= 2
- s_2_1 - s_2_5 - 1000 r_2_1_5 >= -1001
t_2_1 - t_2_5 - 1000.000000 u_2_1_5 - 3.923000 s_2_5  + 1.961500 s_2_7  + 1.961500 s_2_8  + 2000.000000 r_2_1_5 > -990.380647
t_1_6 - t_1_1 - 1002.201829 s_1_1  + 2.201829 s_1_7  > -998.383522
t_1_6 - t_2_1 - 1001.961500 s_2_1  + 1.961500 s_2_7  > -991.272104
t_2_6 - t_1_1 - 1002.201829 s_1_1  + 2.201829 s_1_7  > -998.383522
t_2_6 - t_2_1 - 1001.961500 s_2_1  + 1.961500 s_2_7  > -991.272104
t_1_1 - t_1_7 - 1000.000000 s_1_7  > -996.803189
t_1_1 - t_2_7 - 1000.000000 s_2_7  > -993.318300
t_2_1 - t_1_7 - 1000.000000 s_1_7  > -996.803189
t_2_1 - t_2_7 - 1000.000000 s_2_7  > -993.318300
s_1_1 + s_1_8 + 1000 r_1_1_8 >= 2
- s_1_1 - s_1_8 - 1000 r_1_1_8 >= -1001
t_1_1 - t_1_8 - 1000.000000 u_1_1_8 - 0.000000 s_1_8  + 2000.000000 r_1_1_8 > -996.657000
s_2_1 + s_2_8 + 1000 r_2_1_8 >= 2
- s_2_1 - s_2_8 - 1000 r_2_1_8 >= -1001
t_2_1 - t_2_8 - 1000.000000 u_2_1_8 - 0.000000 s_2_8  + 2000.000000 r_2_1_8 > -991.996378
s_1_2 + s_1_1 + 1000 r_1_1_2 >= 2
- s_1_2 - s_1_1 - 1000 r_1_1_2 >= -1001
t_1_2 - t_1_1 + 1000.000000 u_1_1_2 - 2.201829 s_1_1  + 2.201829 s_1_7  + 2000.000000 r_1_1_2 > 1.616478
s_2_2 + s_2_1 + 1000 r_2_1_2 >= 2
- s_2_2 - s_2_1 - 1000 r_2_1_2 >= -1001
t_2_2 - t_2_1 + 1000.000000 u_2_1_2 - 1.961500 s_2_1  + 1.961500 s_2_7  + 2000.000000 r_2_1_2 > 8.727896
s_1_2 + s_1_3 + 1000 r_1_2_3 >= 2
- s_1_2 - s_1_3 - 1000 r_1_2_3 >= -1001
t_1_2 - t_1_3 - 1000.000000 u_1_2_3 - 2.201829 s_1_3  + 2.201829 s_1_8  + 2000.000000 r_1_2_3 > -998.012856
s_2_2 + s_2_3 + 1000 r_2_2_3 >= 2
- s_2_2 - s_2_3 - 1000 r_2_2_3 >= -1001
t_2_2 - t_2_3 - 1000.000000 u_2_2_3 - 1.961500 s_2_3  + 1.961500 s_2_8  + 2000.000000 r_2_2_3 > -986.012277
s_1_2 + s_1_4 + 1000 r_1_2_4 >= 2
- s_1_2 - s_1_4 - 1000 r_1_2_4 >= -1001
t_1_2 - t_1_4 - 1000.000000 u_1_2_4 - 3.434752 s_1_4  + 2.201829 s_1_8  + 1.232924 s_1_3  + 2000.000000 r_1_2_4 > -999.088567
s_2_2 + s_2_4 + 1000 r_2_2_4 >= 2
- s_2_2 - s_2_4 - 1000 r_2_2_4 >= -1001
t_2_2 - t_2_4 - 1000.000000 u_2_2_4 - 2.967986 s_2_4  + 1.961500 s_2_8  + 1.006486 s_2_3  + 2000.000000 r_2_2_4 > -992.336025
s_1_2 + s_1_5 + 1000 r_1_2_5 >= 2
- s_1_2 - s_1_5 - 1000 r_1_2_5 >= -1001
t_1_2 - t_1_5 - 1000.000000 u_1_2_5 - 4.403658 s_1_5  + 2.201829 s_1_7  + 2.201829 s_1_8  + 2000.000000 r_1_2_5 > -998.474200
s_2_2 + s_2_5 + 1000 r_2_2_5 >= 2
- s_2_2 - s_2_5 - 1000 r_2_2_5 >= -1001
t_2_2 - t_2_5 - 1000.000000 u_2_2_5 - 3.923000 s_2_5  + 1.961500 s_2_7  + 1.961500 s_2_8  + 2000.000000 r_2_2_5 > -990.380647
t_1_6 - t_1_2 - 1002.201829 s_1_2  + 2.201829 s_1_8  > -998.170378
t_1_6 - t_2_2 - 1001.961500 s_2_2  + 1.961500 s_2_8  > -990.751904
t_2_6 - t_1_2 - 1002.201829 s_1_2  + 2.201829 s_1_8  > -998.170378
t_2_6 - t_2_2 - 1001.961500 s_2_2  + 1.961500 s_2_8  > -990.751904
s_1_2 + s_1_7 + 1000 r_1_2_7 >= 2
- s_1_2 - s_1_7 - 1000 r_1_2_7 >= -1001
t_1_2 - t_1_7 - 1000.000000 u_1_2_7 - 0.000000 s_1_7  + 2000.000000 r_1_2_7 > -996.803189
s_2_2 + s_2_7 + 1000 r_2_2_7 >= 2
- s_2_2 - s_2_7 - 1000 r_2_2_7 >= -1001
t_2_2 - t_2_7 - 1000.000000 u_2_2_7 - 0.000000 s_2_7  + 2000.000000 r_2_2_7 > -993.318300
t_1_2 - t_1_8 - 1000.000000 s_1_8  > -996.657000
t_1_2 - t_2_8 - 1000.000000 s_2_8  > -991.996378
t_2_2 - t_1_8 - 1000.000000 s_1_8  > -996.657000
t_2_2 - t_2_8 - 1000.000000 s_2_8  > -991.996378
s_1_3 + s_1_1 + 1000 r_1_1_3 >= 2
- s_1_3 - s_1_1 - 1000 r_1_1_3 >= -1001
t_1_3 - t_1_1 + 1000.000000 u_1_1_3 - 2.201829 s_1_1  + 2.201829 s_1_7  + 2000.000000 r_1_1_3 > 1.616478
s_2_3 + s_2_1 + 1000 r_2_1_3 >= 2
- s_2_3 - s_2_1 - 1000 r_2_1_3 >= -1001
t_2_3 - t_2_1 + 1000.000000 u_2_1_3 - 1.961500 s_2_1  + 1.961500 s_2_7  + 2000.000000 r_2_1_3 > 8.727896
s_1_3 + s_1_2 + 1000 r_1_2_3 >= 2
- s_1_3 - s_1_2 - 1000 r_1_2_3 >= -1001
t_1_3 - t_1_2 + 1000.000000 u_1_2_3 - 2.201829 s_1_2  + 2.201829 s_1_8  + 2000.000000 r_1_2_3 > 1.829622
s_2_3 + s_2_2 + 1000 r_2_2_3 >= 2
- s_2_3 - s_2_2 - 1000 r_2_2_3 >= -1001
t_2_3 - t_2_2 + 1000.000000 u_2_2_3 - 1.961500 s_2_2  + 1.961500 s_2_8  + 2000.000000 r_2_2_3 > 9.248096
t_1_4 - t_1_3 - 1002.201829 s_1_3  + 2.201829 s_1_8  > -998.012856
t_1_4 - t_2_3 - 1001.961500 s_2_3  + 1.961500 s_2_8  > -986.012277
t_2_4 - t_1_3 - 1002.201829 s_1_3  + 2.201829 s_1_8  > -998.012856
t_2_4 - t_2_3 - 1001.961500 s_2_3  + 1.961500 s_2_8  > -986.012277
s_1_3 + s_1_5 + 1000 r_1_3_5 >= 2
- s_1_3 - s_1_5 - 1000 r_1_3_5 >= -1001
t_1_3 - t_1_5 - 1000.000000 u_1_3_5 - 4.403658 s_1_5  + 2.201829 s_1_7  + 2.201829 s_1_8  + 2000.000000 r_1_3_5 > -998.474200
s_2_3 + s_2_5 + 1000 r_2_3_5 >= 2
- s_2_3 - s_2_5 - 1000 r_2_3_5 >= -1001
t_2_3 - t_2_5 - 1000.000000 u_2_3_5 - 3.923000 s_2_5  + 1.961500 s_2_7  + 1.961500 s_2_8  + 2000.000000 r_2_3_5 > -990.380647
t_1_6 - t_1_3 - 1002.201829 s_1_3  + 2.201829 s_1_8  > -998.012856
t_1_6 - t_2_3 - 1001.961500 s_2_3  + 1.961500 s_2_8  > -986.012277
t_2_6 - t_1_3 - 1002.201829 s_1_3  + 2.201829 s_1_8  > -998.012856
t_2_6 - t_2_3 - 1001.961500 s_2_3  + 1.961500 s_2_8  > -986.012277
s_1_3 + s_1_7 + 1000 r_1_3_7 >= 2
- s_1_3 - s_1_7 - 1000 r_1_3_7 >= -1001
t_1_3 - t_1_7 - 1000.000000 u_1_3_7 - 0.000000 s_1_7  + 2000.000000 r_1_3_7 > -996.803189
s_2_3 + s_2_7 + 1000 r_2_3_7 >= 2
- s_2_3 - s_2_7 - 1000 r_2_3_7 >= -1001
t_2_3 - t_2_7 - 1000.000000 u_2_3_7 - 0.000000 s_2_7  + 2000.000000 r_2_3_7 > -993.318300
t_1_3 - t_1_8 - 1000.000000 s_1_8  > -996.657000
t_1_3 - t_2_8 - 1000.000000 s_2_8  > -991.996378
t_2_3 - t_1_8 - 1000.000000 s_1_8  > -996.657000
t_2_3 - t_2_8 - 1000.000000 s_2_8  > -991.996378
s_1_4 + s_1_1 + 1000 r_1_1_4 >= 2
- s_1_4 - s_1_1 - 1000 r_1_1_4 >= -1001
t_1_4 - t_1_1 + 1000.000000 u_1_1_4 - 2.201829 s_1_1  + 2.201829 s_1_7  + 2000.000000 r_1_1_4 > 1.616478
s_2_4 + s_2_1 + 1000 r_2_1_4 >= 2
- s_2_4 - s_2_1 - 1000 r_2_1_4 >= -1001
t_2_4 - t_2_1 + 1000.000000 u_2_1_4 - 1.961500 s_2_1  + 1.961500 s_2_7  + 2000.000000 r_2_1_4 > 8.727896
s_1_4 + s_1_2 + 1000 r_1_2_4 >= 2
- s_1_4 - s_1_2 - 1000 r_1_2_4 >= -1001
t_1_4 - t_1_2 + 1000.000000 u_1_2_4 - 2.201829 s_1_2  + 2.201829 s_1_8  + 2000.000000 r_1_2_4 > 1.829622
s_2_4 + s_2_2 + 1000 r_2_2_4 >= 2
- s_2_4 - s_2_2 - 1000 r_2_2_4 >= -1001
t_2_4 - t_2_2 + 1000.000000 u_2_2_4 - 1.961500 s_2_2  + 1.961500 s_2_8  + 2000.000000 r_2_2_4 > 9.248096
s_1_4 + s_1_5 + 1000 r_1_4_5 >= 2
- s_1_4 - s_1_5 - 1000 r_1_4_5 >= -1001
t_1_4 - t_1_5 - 1000.000000 u_1_4_5 - 4.403658 s_1_5  + 2.201829 s_1_7  + 2.201829 s_1_8  + 2000.000000 r_1_4_5 > -998.474200
s_2_4 + s_2_5 + 1000 r_2_4_5 >= 2
- s_2_4 - s_2_5 - 1000 r_2_4_5 >= -1001
t_2_4 - t_2_5 - 1000.000000 u_2_4_5 - 3.923000 s_2_5  + 1.961500 s_2_7  + 1.961500 s_2_8  + 2000.000000 r_2_4_5 > -990.380647
t_1_6 - t_1_4 - 1003.434752 s_1_4  + 2.201829 s_1_8  + 1.232924 s_1_3  > -999.088567
t_1_6 - t_2_4 - 1002.967986 s_2_4  + 1.961500 s_2_8  + 1.006486 s_2_3  > -992.336025
t_2_6 - t_1_4 - 1003.434752 s_1_4  + 2.201829 s_1_8  + 1.232924 s_1_3  > -999.088567
t_2_6 - t_2_4 - 1002.967986 s_2_4  + 1.961500 s_2_8  + 1.006486 s_2_3  > -992.336025
s_1_4 + s_1_7 + 1000 r_1_4_7 >= 2
- s_1_4 - s_1_7 - 1000 r_1_4_7 >= -1001
t_1_4 - t_1_7 - 1000.000000 u_1_4_7 - 0.000000 s_1_7  + 2000.000000 r_1_4_7 > -996.803189
s_2_4 + s_2_7 + 1000 r_2_4_7 >= 2
- s_2_4 - s_2_7 - 1000 r_2_4_7 >= -1001
t_2_4 - t_2_7 - 1000.000000 u_2_4_7 - 0.000000 s_2_7  + 2000.000000 r_2_4_7 > -993.318300
t_1_4 - t_1_8 - 1000.000000 s_1_8  > -996.657000
t_1_4 - t_2_8 - 1000.000000 s_2_8  > -991.996378
t_2_4 - t_1_8 - 1000.000000 s_1_8  > -996.657000
t_2_4 - t_2_8 - 1000.000000 s_2_8  > -991.996378
s_1_5 + s_1_1 + 1000 r_1_1_5 >= 2
- s_1_5 - s_1_1 - 1000 r_1_1_5 >= -1001
t_1_5 - t_1_1 + 1000.000000 u_1_1_5 - 2.201829 s_1_1  + 2.201829 s_1_7  + 2000.000000 r_1_1_5 > 1.616478
s_2_5 + s_2_1 + 1000 r_2_1_5 >= 2
- s_2_5 - s_2_1 - 1000 r_2_1_5 >= -1001
t_2_5 - t_2_1 + 1000.000000 u_2_1_5 - 1.961500 s_2_1  + 1.961500 s_2_7  + 2000.000000 r_2_1_5 > 8.727896
s_1_5 + s_1_2 + 1000 r_1_2_5 >= 2
- s_1_5 - s_1_2 - 1000 r_1_2_5 >= -1001
t_1_5 - t_1_2 + 1000.000000 u_1_2_5 - 2.201829 s_1_2  + 2.201829 s_1_8  + 2000.000000 r_1_2_5 > 1.829622
s_2_5 + s_2_2 + 1000 r_2_2_5 >= 2
- s_2_5 - s_2_2 - 1000 r_2_2_5 >= -1001
t_2_5 - t_2_2 + 1000.000000 u_2_2_5 - 1.961500 s_2_2  + 1.961500 s_2_8  + 2000.000000 r_2_2_5 > 9.248096
s_1_5 + s_1_3 + 1000 r_1_3_5 >= 2
- s_1_5 - s_1_3 - 1000 r_1_3_5 >= -1001
t_1_5 - t_1_3 + 1000.000000 u_1_3_5 - 2.201829 s_1_3  + 2.201829 s_1_8  + 2000.000000 r_1_3_5 > 1.987144
s_2_5 + s_2_3 + 1000 r_2_3_5 >= 2
- s_2_5 - s_2_3 - 1000 r_2_3_5 >= -1001
t_2_5 - t_2_3 + 1000.000000 u_2_3_5 - 1.961500 s_2_3  + 1.961500 s_2_8  + 2000.000000 r_2_3_5 > 13.987723
s_1_5 + s_1_4 + 1000 r_1_4_5 >= 2
- s_1_5 - s_1_4 - 1000 r_1_4_5 >= -1001
t_1_5 - t_1_4 + 1000.000000 u_1_4_5 - 3.434752 s_1_4  + 2.201829 s_1_8  + 1.232924 s_1_3  + 2000.000000 r_1_4_5 > 0.911433
s_2_5 + s_2_4 + 1000 r_2_4_5 >= 2
- s_2_5 - s_2_4 - 1000 r_2_4_5 >= -1001
t_2_5 - t_2_4 + 1000.000000 u_2_4_5 - 2.967986 s_2_4  + 1.961500 s_2_8  + 1.006486 s_2_3  + 2000.000000 r_2_4_5 > 7.663975
t_1_6 - t_1_5 - 1004.403658 s_1_5  + 2.201829 s_1_7  + 2.201829 s_1_8  > -998.474200
t_1_6 - t_2_5 - 1003.923000 s_2_5  + 1.961500 s_2_7  + 1.961500 s_2_8  > -990.380647
t_2_6 - t_1_5 - 1004.403658 s_1_5  + 2.201829 s_1_7  + 2.201829 s_1_8  > -998.474200
t_2_6 - t_2_5 - 1003.923000 s_2_5  + 1.961500 s_2_7  + 1.961500 s_2_8  > -990.380647
t_1_5 - t_1_7 - 1000.000000 s_1_7  > -996.803189
t_1_5 - t_2_7 - 1000.000000 s_2_7  > -993.318300
t_2_5 - t_1_7 - 1000.000000 s_1_7  > -996.803189
t_2_5 - t_2_7 - 1000.000000 s_2_7  > -993.318300
t_1_5 - t_1_8 - 1000.000000 s_1_8  > -996.657000
t_1_5 - t_2_8 - 1000.000000 s_2_8  > -991.996378
t_2_5 - t_1_8 - 1000.000000 s_1_8  > -996.657000
t_2_5 - t_2_8 - 1000.000000 s_2_8  > -991.996378
s_1_7 + s_1_2 + 1000 r_1_2_7 >= 2
- s_1_7 - s_1_2 - 1000 r_1_2_7 >= -1001
t_1_7 - t_1_2 + 1000.000000 u_1_2_7 - 2.201829 s_1_2  + 2.201829 s_1_8  + 2000.000000 r_1_2_7 > 1.829622
s_2_7 + s_2_2 + 1000 r_2_2_7 >= 2
- s_2_7 - s_2_2 - 1000 r_2_2_7 >= -1001
t_2_7 - t_2_2 + 1000.000000 u_2_2_7 - 1.961500 s_2_2  + 1.961500 s_2_8  + 2000.000000 r_2_2_7 > 9.248096
s_1_7 + s_1_3 + 1000 r_1_3_7 >= 2
- s_1_7 - s_1_3 - 1000 r_1_3_7 >= -1001
t_1_7 - t_1_3 + 1000.000000 u_1_3_7 - 2.201829 s_1_3  + 2.201829 s_1_8  + 2000.000000 r_1_3_7 > 1.987144
s_2_7 + s_2_3 + 1000 r_2_3_7 >= 2
- s_2_7 - s_2_3 - 1000 r_2_3_7 >= -1001
t_2_7 - t_2_3 + 1000.000000 u_2_3_7 - 1.961500 s_2_3  + 1.961500 s_2_8  + 2000.000000 r_2_3_7 > 13.987723
s_1_7 + s_1_4 + 1000 r_1_4_7 >= 2
- s_1_7 - s_1_4 - 1000 r_1_4_7 >= -1001
t_1_7 - t_1_4 + 1000.000000 u_1_4_7 - 3.434752 s_1_4  + 2.201829 s_1_8  + 1.232924 s_1_3  + 2000.000000 r_1_4_7 > 0.911433
s_2_7 + s_2_4 + 1000 r_2_4_7 >= 2
- s_2_7 - s_2_4 - 1000 r_2_4_7 >= -1001
t_2_7 - t_2_4 + 1000.000000 u_2_4_7 - 2.967986 s_2_4  + 1.961500 s_2_8  + 1.006486 s_2_3  + 2000.000000 r_2_4_7 > 7.663975
s_1_7 + s_1_8 + 1000 r_1_7_8 >= 2
- s_1_7 - s_1_8 - 1000 r_1_7_8 >= -1001
t_1_7 - t_1_8 - 1000.000000 u_1_7_8 - 0.000000 s_1_8  + 2000.000000 r_1_7_8 > -996.657000
s_2_7 + s_2_8 + 1000 r_2_7_8 >= 2
- s_2_7 - s_2_8 - 1000 r_2_7_8 >= -1001
t_2_7 - t_2_8 - 1000.000000 u_2_7_8 - 0.000000 s_2_8  + 2000.000000 r_2_7_8 > -991.996378
s_1_8 + s_1_1 + 1000 r_1_1_8 >= 2
- s_1_8 - s_1_1 - 1000 r_1_1_8 >= -1001
t_1_8 - t_1_1 + 1000.000000 u_1_1_8 - 2.201829 s_1_1  + 2.201829 s_1_7  + 2000.000000 r_1_1_8 > 1.616478
s_2_8 + s_2_1 + 1000 r_2_1_8 >= 2
- s_2_8 - s_2_1 - 1000 r_2_1_8 >= -1001
t_2_8 - t_2_1 + 1000.000000 u_2_1_8 - 1.961500 s_2_1  + 1.961500 s_2_7  + 2000.000000 r_2_1_8 > 8.727896
s_1_8 + s_1_7 + 1000 r_1_7_8 >= 2
- s_1_8 - s_1_7 - 1000 r_1_7_8 >= -1001
t_1_8 - t_1_7 + 1000.000000 u_1_7_8 - 0.000000 s_1_7  + 2000.000000 r_1_7_8 > 3.196811
s_2_8 + s_2_7 + 1000 r_2_7_8 >= 2
- s_2_8 - s_2_7 - 1000 r_2_7_8 >= -1001
t_2_8 - t_2_7 + 1000.000000 u_2_7_8 - 0.000000 s_2_7  + 2000.000000 r_2_7_8 > 6.681700
Binary
s_1_1
s_2_1
s_1_2
s_2_2
s_1_3
s_2_3
s_1_4
s_2_4
s_1_5
s_2_5
s_1_6
s_2_6
s_1_7
s_2_7
s_1_8
s_2_8
u_1_1_2
r_1_1_2
u_2_1_2
r_2_1_2
u_1_1_3
r_1_1_3
u_2_1_3
r_2_1_3
u_1_1_4
r_1_1_4
u_2_1_4
r_2_1_4
u_1_1_5
r_1_1_5
u_2_1_5
r_2_1_5
u_1_1_8
r_1_1_8
u_2_1_8
r_2_1_8
u_1_2_3
r_1_2_3
u_2_2_3
r_2_2_3
u_1_2_4
r_1_2_4
u_2_2_4
r_2_2_4
u_1_2_5
r_1_2_5
u_2_2_5
r_2_2_5
u_1_2_7
r_1_2_7
u_2_2_7
r_2_2_7
u_1_3_5
r_1_3_5
u_2_3_5
r_2_3_5
u_1_3_7
r_1_3_7
u_2_3_7
r_2_3_7
u_1_4_5
r_1_4_5
u_2_4_5
r_2_4_5
u_1_4_7
r_1_4_7
u_2_4_7
r_2_4_7
u_1_7_8
r_1_7_8
u_2_7_8
r_2_7_8

End
